Maximize

45 dSta_0 + 6 d0_1.0 + 16 d0_1.1 + 1 d1_2.0 + 6 d1_2.1 + 1 d1_3.0 + 6 d1_3.1 + 1 d2_3.0 + 6 d2_3.1 + 1 d3_4.0 + 6 d3_4.1 + 4 d3_5.0 + 15 d3_5.1 + 4 d4_5.0 + 15 d4_5.1 + 3 d5_6.0 + 9 d5_6.1 + 3 d5_7.0 + 9 d5_7.1 + 3 d6_7.0 + 9 d6_7.1 + 3 d7_8.0 + 14 d7_8.1 + 3 d7_9.0 + 14 d7_9.1 + 3 d8_9.0 + 13 d8_9.1 + 2 d9_10.0 + 8 d9_10.1 + 1 d9_11.0 + 7 d9_11.1 + 1 d10_11.0 + 6 d10_11.1 + 2 d11_12.0 + 8 d11_12.1 + 1 d11_13.0 + 6 d11_13.1 + 2 d12_14.0 + 13 d12_14.1 + 2 d13_14.0 + 14 d13_14.1 + 2 d14_15.0 + 8 d14_15.1 + 2 d14_16.0 + 14 d14_16.1 + 7 d15_18.0 + 19 d15_18.1 + 1 d16_17.0 + 7 d16_17.1 + 7 d16_18.0 + 19 d16_18.1 + 7 d17_18.0 + 18 d17_18.1 + 1 d18_19.0 + 6 d18_19.1 + 2 d18_20.0 + 8 d18_20.1 + 2 d19_20.0 + 8 d19_20.1 + 1 d20_21.0 + 6 d20_21.1 + 5 d20_22.0 + 11 d20_22.1 + 5 d21_22.0 + 11 d21_22.1 + 3 d22_23.0 + 9 d22_23.1 + 5 d22_24.0 + 17 d22_24.1 + 3 d23_25.0 + 15 d23_25.1 + 3 d24_25.0 + 14 d24_25.1 + 6 d25_26.0 + 16 d25_26.1 + 6 d25_1.0 + 16 d25_1.1 + 1 d26_27.0 + 6 d26_27.1 + 19 d26_28.0 + 43 d26_28.1 + 20 d27_28.0 + 43 d27_28.1 + 2 d28_29.0 + 6 d28_29.1 + 2 d29_30.0 + 8 d29_30.1 + 6 d29_31.0 + 17 d29_31.1 + 7 d30_32.0 + 17 d30_32.1 + 7 d31_32.0 + 17 d31_32.1 + 1 d32_33.0 + 6 d32_33.1 + 2 d32_34.0 + 13 d32_34.1 + 2 d33_34.0 + 13 d33_34.1 + 1 d34_35.0 + 7 d34_35.1 + 5 d34_36.0 + 17 d34_36.1 + 5 d35_36.0 + 16 d35_36.1 + 1 d36_37.0 + 6 d36_37.1 + 2 d36_38.0 + 8 d36_38.1 + 2 d37_38.0 + 8 d37_38.1 + 2 d38_39.0 + 7 d38_39.1 + 2 d38_40.0 + 8 d38_40.1 + 2 d39_40.0 + 8 d39_40.1 + 2 d40_41.0 + 7 d40_41.1 + 1 d40_42.0 + 6 d40_42.1 + 1 d41_42.0 + 6 d41_42.1 + 2 d42_43.0 + 8 d42_43.1 + 1 d42_44.0 + 7 d42_44.1 + 2 d43_45.0 + 8 d43_45.1 + 2 d44_45.0 + 8 d44_45.1 + 2 d45_46.0 + 7 d45_46.1 + 2 d45_47.0 + 8 d45_47.1 + 10 d46_49.0 + 26 d46_49.1 + 1 d47_48.0 + 6 d47_48.1 + 10 d47_49.0 + 25 d47_49.1 + 10 d48_49.0 + 25 d48_49.1 + 9 d49_50.0 + 21 d49_50.1 + 1 d49_29.0 + 6 d49_29.1 + 2115382148 dSta_0 + 6 b0.d0 + 6 b0.d1 + 6 b0.d2 + 6 b1.d0 + 6 b18.d0 + 6 b22.d0 + 6 b24.d0 + 6 b26.d0 + 6 b26.d1 + 6 b27.d0 + 6 b28.d0 + 6 b28.d1 + 6 b28.d2 + 6 b31.d0 + 6 b32.d0 + 6 b49.d0 + 6 b49.d1 + 6 b50.d0 + 6 b50.d1 + 6 b50.d2


Subject to

cm - 2 d0_1.1 - 2 d25_1.1 - d1_2.1 - d1_3.1 - d2_3.1 - d3_4.1 - 2 d3_5.1 - 2 d4_5.1 - d5_6.1 - d5_7.1 - d6_7.1 - 2 d7_8.1 - 2 d7_9.1 - 2 d8_9.1 - d9_10.1 - d9_11.1 - d10_11.1 - d11_12.1 - d11_13.1 - 2 d12_14.1 - 2 d13_14.1 - d14_15.1 - 2 d14_16.1 - d16_17.1 - 2 d15_18.1 - 2 d16_18.1 - 2 d17_18.1 - d18_19.1 - d18_20.1 - d19_20.1 - d20_21.1 - d20_22.1 - d21_22.1 - d22_23.1 - 2 d22_24.1 - 2 d23_25.1 - 2 d24_25.1 - 2 d25_26.1 - d26_27.1 - 5 d26_28.1 - 5 d27_28.1 - d28_29.1 - d49_29.1 - d29_30.1 - 2 d29_31.1 - 2 d30_32.1 - 2 d31_32.1 - d32_33.1 - 2 d32_34.1 - 2 d33_34.1 - d34_35.1 - 2 d34_36.1 - 2 d35_36.1 - d36_37.1 - d36_38.1 - d37_38.1 - d38_39.1 - d38_40.1 - d39_40.1 - d40_41.1 - d40_42.1 - d41_42.1 - d42_43.1 - d42_44.1 - d43_45.1 - d44_45.1 - d45_46.1 - d45_47.1 - d47_48.1 - 3 d46_49.1 - 3 d47_49.1 - 3 d48_49.1 - 3 d49_50.1 = 5

\ === tcfg constraints ===
dSta_0 = 1
b0 - d0_1 = 0
b0 - dSta_0 = 0
b1 - d1_2 - d1_3 = 0
b1 - d0_1 - d25_1 = 0
b2 - d2_3 = 0
b2 - d1_2 = 0
b3 - d3_4 - d3_5 = 0
b3 - d1_3 - d2_3 = 0
b4 - d4_5 = 0
b4 - d3_4 = 0
b5 - d5_6 - d5_7 = 0
b5 - d3_5 - d4_5 = 0
b6 - d6_7 = 0
b6 - d5_6 = 0
b7 - d7_8 - d7_9 = 0
b7 - d5_7 - d6_7 = 0
b8 - d8_9 = 0
b8 - d7_8 = 0
b9 - d9_10 - d9_11 = 0
b9 - d7_9 - d8_9 = 0
b10 - d10_11 = 0
b10 - d9_10 = 0
b11 - d11_12 - d11_13 = 0
b11 - d9_11 - d10_11 = 0
b12 - d12_14 = 0
b12 - d11_12 = 0
b13 - d13_14 = 0
b13 - d11_13 = 0
b14 - d14_15 - d14_16 = 0
b14 - d12_14 - d13_14 = 0
b15 - d15_18 = 0
b15 - d14_15 = 0
b16 - d16_17 - d16_18 = 0
b16 - d14_16 = 0
b17 - d17_18 = 0
b17 - d16_17 = 0
b18 - d18_19 - d18_20 = 0
b18 - d15_18 - d16_18 - d17_18 = 0
b19 - d19_20 = 0
b19 - d18_19 = 0
b20 - d20_21 - d20_22 = 0
b20 - d18_20 - d19_20 = 0
b21 - d21_22 = 0
b21 - d20_21 = 0
b22 - d22_23 - d22_24 = 0
b22 - d20_22 - d21_22 = 0
b23 - d23_25 = 0
b23 - d22_23 = 0
b24 - d24_25 = 0
b24 - d22_24 = 0
b25 - d25_26 - d25_1 = 0
b25 - d23_25 - d24_25 = 0
b26 - d26_27 - d26_28 = 0
b26 - d25_26 = 0
b27 - d27_28 = 0
b27 - d26_27 = 0
b28 - d28_29 = 0
b28 - d26_28 - d27_28 = 0
b29 - d29_30 - d29_31 = 0
b29 - d28_29 - d49_29 = 0
b30 - d30_32 = 0
b30 - d29_30 = 0
b31 - d31_32 = 0
b31 - d29_31 = 0
b32 - d32_33 - d32_34 = 0
b32 - d30_32 - d31_32 = 0
b33 - d33_34 = 0
b33 - d32_33 = 0
b34 - d34_35 - d34_36 = 0
b34 - d32_34 - d33_34 = 0
b35 - d35_36 = 0
b35 - d34_35 = 0
b36 - d36_37 - d36_38 = 0
b36 - d34_36 - d35_36 = 0
b37 - d37_38 = 0
b37 - d36_37 = 0
b38 - d38_39 - d38_40 = 0
b38 - d36_38 - d37_38 = 0
b39 - d39_40 = 0
b39 - d38_39 = 0
b40 - d40_41 - d40_42 = 0
b40 - d38_40 - d39_40 = 0
b41 - d41_42 = 0
b41 - d40_41 = 0
b42 - d42_43 - d42_44 = 0
b42 - d40_42 - d41_42 = 0
b43 - d43_45 = 0
b43 - d42_43 = 0
b44 - d44_45 = 0
b44 - d42_44 = 0
b45 - d45_46 - d45_47 = 0
b45 - d43_45 - d44_45 = 0
b46 - d46_49 = 0
b46 - d45_46 = 0
b47 - d47_48 - d47_49 = 0
b47 - d45_47 = 0
b48 - d48_49 = 0
b48 - d47_48 = 0
b49 - d49_50 - d49_29 = 0
b49 - d46_49 - d47_49 - d48_49 = 0
b50 - d49_50 = 0


\ === cache_cons ===
b0.0 <= 1
b1 - b1.0 - b1.1 = 0
b2 - b2.0 - b2.1 = 0
b3 - b3.0 - b3.1 = 0
b4 - b4.0 - b4.1 = 0
b5 - b5.0 - b5.1 = 0
b6 - b6.0 - b6.1 = 0
b7 - b7.0 - b7.1 = 0
b8 - b8.0 - b8.1 = 0
b9 - b9.0 - b9.1 = 0
b10 - b10.0 - b10.1 = 0
b11 - b11.0 - b11.1 = 0
b12 - b12.0 - b12.1 = 0
b13 - b13.0 - b13.1 = 0
b14 - b14.0 - b14.1 = 0
b15 - b15.0 - b15.1 = 0
b16 - b16.0 - b16.1 = 0
b17 - b17.0 - b17.1 = 0
b18 - b18.0 - b18.1 = 0
b19 - b19.0 - b19.1 = 0
b20 - b20.0 - b20.1 = 0
b21 - b21.0 - b21.1 = 0
b22 - b22.0 - b22.1 = 0
b23 - b23.0 - b23.1 = 0
b24 - b24.0 - b24.1 = 0
b25 - b25.0 - b25.1 = 0
b26 - b26.0 - b26.1 = 0
b27 - b27.0 - b27.1 = 0
b28 - b28.0 - b28.1 = 0
b29 - b29.0 - b29.1 = 0
b30 - b30.0 - b30.1 = 0
b31 - b31.0 - b31.1 = 0
b32 - b32.0 - b32.1 = 0
b33 - b33.0 - b33.1 = 0
b34 - b34.0 - b34.1 = 0
b35 - b35.0 - b35.1 = 0
b36 - b36.0 - b36.1 = 0
b37 - b37.0 - b37.1 = 0
b38 - b38.0 - b38.1 = 0
b39 - b39.0 - b39.1 = 0
b40 - b40.0 - b40.1 = 0
b41 - b41.0 - b41.1 = 0
b42 - b42.0 - b42.1 = 0
b43 - b43.0 - b43.1 = 0
b44 - b44.0 - b44.1 = 0
b45 - b45.0 - b45.1 = 0
b46 - b46.0 - b46.1 = 0
b47 - b47.0 - b47.1 = 0
b48 - b48.0 - b48.1 = 0
b49 - b49.0 - b49.1 = 0
b50 - b50.0 - b50.1 = 0

b0.0 <= 1
b1.0 - d0_1.0 - d25_1.0 = 0
b1.1 - d0_1.1 - d25_1.1 = 0
b2.0 - d1_2.0 = 0
b2.1 - d1_2.1 = 0
b3.0 - d1_3.0 - d2_3.0 = 0
b3.1 - d1_3.1 - d2_3.1 = 0
b4.0 - d3_4.0 = 0
b4.1 - d3_4.1 = 0
b5.0 - d3_5.0 - d4_5.0 = 0
b5.1 - d3_5.1 - d4_5.1 = 0
b6.0 - d5_6.0 = 0
b6.1 - d5_6.1 = 0
b7.0 - d5_7.0 - d6_7.0 = 0
b7.1 - d5_7.1 - d6_7.1 = 0
b8.0 - d7_8.0 = 0
b8.1 - d7_8.1 = 0
b9.0 - d7_9.0 - d8_9.0 = 0
b9.1 - d7_9.1 - d8_9.1 = 0
b10.0 - d9_10.0 = 0
b10.1 - d9_10.1 = 0
b11.0 - d9_11.0 - d10_11.0 = 0
b11.1 - d9_11.1 - d10_11.1 = 0
b12.0 - d11_12.0 = 0
b12.1 - d11_12.1 = 0
b13.0 - d11_13.0 = 0
b13.1 - d11_13.1 = 0
b14.0 - d12_14.0 - d13_14.0 = 0
b14.1 - d12_14.1 - d13_14.1 = 0
b15.0 - d14_15.0 = 0
b15.1 - d14_15.1 = 0
b16.0 - d14_16.0 = 0
b16.1 - d14_16.1 = 0
b17.0 - d16_17.0 = 0
b17.1 - d16_17.1 = 0
b18.0 - d15_18.0 - d16_18.0 - d17_18.0 = 0
b18.1 - d15_18.1 - d16_18.1 - d17_18.1 = 0
b19.0 - d18_19.0 = 0
b19.1 - d18_19.1 = 0
b20.0 - d18_20.0 - d19_20.0 = 0
b20.1 - d18_20.1 - d19_20.1 = 0
b21.0 - d20_21.0 = 0
b21.1 - d20_21.1 = 0
b22.0 - d20_22.0 - d21_22.0 = 0
b22.1 - d20_22.1 - d21_22.1 = 0
b23.0 - d22_23.0 = 0
b23.1 - d22_23.1 = 0
b24.0 - d22_24.0 = 0
b24.1 - d22_24.1 = 0
b25.0 - d23_25.0 - d24_25.0 = 0
b25.1 - d23_25.1 - d24_25.1 = 0
b26.0 - d25_26.0 = 0
b26.1 - d25_26.1 = 0
b27.0 - d26_27.0 = 0
b27.1 - d26_27.1 = 0
b28.0 - d26_28.0 - d27_28.0 = 0
b28.1 - d26_28.1 - d27_28.1 = 0
b29.0 - d28_29.0 - d49_29.0 = 0
b29.1 - d28_29.1 - d49_29.1 = 0
b30.0 - d29_30.0 = 0
b30.1 - d29_30.1 = 0
b31.0 - d29_31.0 = 0
b31.1 - d29_31.1 = 0
b32.0 - d30_32.0 - d31_32.0 = 0
b32.1 - d30_32.1 - d31_32.1 = 0
b33.0 - d32_33.0 = 0
b33.1 - d32_33.1 = 0
b34.0 - d32_34.0 - d33_34.0 = 0
b34.1 - d32_34.1 - d33_34.1 = 0
b35.0 - d34_35.0 = 0
b35.1 - d34_35.1 = 0
b36.0 - d34_36.0 - d35_36.0 = 0
b36.1 - d34_36.1 - d35_36.1 = 0
b37.0 - d36_37.0 = 0
b37.1 - d36_37.1 = 0
b38.0 - d36_38.0 - d37_38.0 = 0
b38.1 - d36_38.1 - d37_38.1 = 0
b39.0 - d38_39.0 = 0
b39.1 - d38_39.1 = 0
b40.0 - d38_40.0 - d39_40.0 = 0
b40.1 - d38_40.1 - d39_40.1 = 0
b41.0 - d40_41.0 = 0
b41.1 - d40_41.1 = 0
b42.0 - d40_42.0 - d41_42.0 = 0
b42.1 - d40_42.1 - d41_42.1 = 0
b43.0 - d42_43.0 = 0
b43.1 - d42_43.1 = 0
b44.0 - d42_44.0 = 0
b44.1 - d42_44.1 = 0
b45.0 - d43_45.0 - d44_45.0 = 0
b45.1 - d43_45.1 - d44_45.1 = 0
b46.0 - d45_46.0 = 0
b46.1 - d45_46.1 = 0
b47.0 - d45_47.0 = 0
b47.1 - d45_47.1 = 0
b48.0 - d47_48.0 = 0
b48.1 - d47_48.1 = 0
b49.0 - d46_49.0 - d47_49.0 - d48_49.0 = 0
b49.1 - d46_49.1 - d47_49.1 - d48_49.1 = 0
b50.0 - d49_50.0 = 0
b50.1 - d49_50.1 = 0

b0.1 <= 1
b1.1 <= 1
b2.1 <= 1
b3.1 <= 1
b4.1 <= 1
b5.1 <= 1
b6.1 <= 1
b7.1 <= 1
b8.1 <= 1
b9.1 <= 1
b10.1 <= 1
b11.1 <= 1
b12.1 <= 1
b13.1 <= 1
b14.1 <= 1
b15.1 <= 1
b16.1 <= 1
b17.1 <= 1
b18.1 <= 1
b19.1 <= 1
b20.1 <= 1
b21.1 <= 1
b22.1 <= 1
b23.1 <= 1
b24.1 <= 1
b25.1 <= 1
b26.1 <= 1
b27.1 <= 1
b28.1 <= 1
b29.1 <= 1
b30.1 <= 1
b31.1 <= 1
b32.1 <= 1
b33.1 <= 1
b34.1 <= 1
b35.1 <= 1
b36.1 <= 1
b37.1 <= 1
b38.1 <= 1
b39.1 <= 1
b40.1 <= 1
b41.1 <= 1
b42.1 <= 1
b43.1 <= 1
b44.1 <= 1
b45.1 <= 1
b46.1 <= 1
b47.1 <= 1
b48.1 <= 1
b49.1 <= 1
b50.1 <= 1

d25_1.1 = 0
d49_29.1 = 0

\ === tcfg_estunit_cons ===
d0_1 - d0_1.0 - d0_1.1 = 0
d1_2 - d1_2.0 - d1_2.1 = 0
d1_3 - d1_3.0 - d1_3.1 = 0
d2_3 - d2_3.0 - d2_3.1 = 0
d3_4 - d3_4.0 - d3_4.1 = 0
d3_5 - d3_5.0 - d3_5.1 = 0
d4_5 - d4_5.0 - d4_5.1 = 0
d5_6 - d5_6.0 - d5_6.1 = 0
d5_7 - d5_7.0 - d5_7.1 = 0
d6_7 - d6_7.0 - d6_7.1 = 0
d7_8 - d7_8.0 - d7_8.1 = 0
d7_9 - d7_9.0 - d7_9.1 = 0
d8_9 - d8_9.0 - d8_9.1 = 0
d9_10 - d9_10.0 - d9_10.1 = 0
d9_11 - d9_11.0 - d9_11.1 = 0
d10_11 - d10_11.0 - d10_11.1 = 0
d11_12 - d11_12.0 - d11_12.1 = 0
d11_13 - d11_13.0 - d11_13.1 = 0
d12_14 - d12_14.0 - d12_14.1 = 0
d13_14 - d13_14.0 - d13_14.1 = 0
d14_15 - d14_15.0 - d14_15.1 = 0
d14_16 - d14_16.0 - d14_16.1 = 0
d15_18 - d15_18.0 - d15_18.1 = 0
d16_17 - d16_17.0 - d16_17.1 = 0
d16_18 - d16_18.0 - d16_18.1 = 0
d17_18 - d17_18.0 - d17_18.1 = 0
d18_19 - d18_19.0 - d18_19.1 = 0
d18_20 - d18_20.0 - d18_20.1 = 0
d19_20 - d19_20.0 - d19_20.1 = 0
d20_21 - d20_21.0 - d20_21.1 = 0
d20_22 - d20_22.0 - d20_22.1 = 0
d21_22 - d21_22.0 - d21_22.1 = 0
d22_23 - d22_23.0 - d22_23.1 = 0
d22_24 - d22_24.0 - d22_24.1 = 0
d23_25 - d23_25.0 - d23_25.1 = 0
d24_25 - d24_25.0 - d24_25.1 = 0
d25_26 - d25_26.0 - d25_26.1 = 0
d25_1 - d25_1.0 - d25_1.1 = 0
d26_27 - d26_27.0 - d26_27.1 = 0
d26_28 - d26_28.0 - d26_28.1 = 0
d27_28 - d27_28.0 - d27_28.1 = 0
d28_29 - d28_29.0 - d28_29.1 = 0
d29_30 - d29_30.0 - d29_30.1 = 0
d29_31 - d29_31.0 - d29_31.1 = 0
d30_32 - d30_32.0 - d30_32.1 = 0
d31_32 - d31_32.0 - d31_32.1 = 0
d32_33 - d32_33.0 - d32_33.1 = 0
d32_34 - d32_34.0 - d32_34.1 = 0
d33_34 - d33_34.0 - d33_34.1 = 0
d34_35 - d34_35.0 - d34_35.1 = 0
d34_36 - d34_36.0 - d34_36.1 = 0
d35_36 - d35_36.0 - d35_36.1 = 0
d36_37 - d36_37.0 - d36_37.1 = 0
d36_38 - d36_38.0 - d36_38.1 = 0
d37_38 - d37_38.0 - d37_38.1 = 0
d38_39 - d38_39.0 - d38_39.1 = 0
d38_40 - d38_40.0 - d38_40.1 = 0
d39_40 - d39_40.0 - d39_40.1 = 0
d40_41 - d40_41.0 - d40_41.1 = 0
d40_42 - d40_42.0 - d40_42.1 = 0
d41_42 - d41_42.0 - d41_42.1 = 0
d42_43 - d42_43.0 - d42_43.1 = 0
d42_44 - d42_44.0 - d42_44.1 = 0
d43_45 - d43_45.0 - d43_45.1 = 0
d44_45 - d44_45.0 - d44_45.1 = 0
d45_46 - d45_46.0 - d45_46.1 = 0
d45_47 - d45_47.0 - d45_47.1 = 0
d46_49 - d46_49.0 - d46_49.1 = 0
d47_48 - d47_48.0 - d47_48.1 = 0
d47_49 - d47_49.0 - d47_49.1 = 0
d48_49 - d48_49.0 - d48_49.1 = 0
d49_50 - d49_50.0 - d49_50.1 = 0
d49_29 - d49_29.0 - d49_29.1 = 0

\ ==== scope-aware dcache miss constraints ===
b0.d0 - b0 <= 0
b0.d0 <= 0
b0.d1 - b0 <= 0
b0.d1 <= 0
b0.d2 - b0 <= 0
b0.d2 <= 1
b1.d0 - b1 <= 0
b1.d0 <= 0
b18.d0 - b18 <= 0
b18.d0 <= 0
b22.d0 - b22 <= 0
b22.d0 <= 0
b24.d0 - b24 <= 0
b24.d0 <= 2048
b26.d0 - b26 <= 0
b26.d0 <= 1
b26.d1 - b26 <= 0
b26.d1 <= 1
b27.d0 - b27 <= 0
b27.d0 <= 1
b28.d0 - b28 <= 0
b28.d0 <= 1
b28.d1 - b28 <= 0
b28.d1 <= 0
b28.d2 - b28 <= 0
b28.d2 <= 0
b31.d0 - b31 <= 0
b31.d0 <= 0
b32.d0 - b32 <= 0
b32.d0 <= 0
b49.d0 - b49 <= 0
b49.d0 <= 0
b49.d1 - b49 <= 0
b49.d1 <= 2048
b50.d0 - b50 <= 0
b50.d0 <= 1
b50.d1 - b50 <= 0
b50.d1 <= 1
b50.d2 - b50 <= 0
b50.d2 <= 0

\ === User constraints (e.g. loop bound) ====
b1- 2048 b0 <= 0
b29- 2048 b28 <= 0

Generals

cm
Sta
b0
d0_1
b1
d1_2
d1_3
b2
d2_3
b3
d3_4
d3_5
b4
d4_5
b5
d5_6
d5_7
b6
d6_7
b7
d7_8
d7_9
b8
d8_9
b9
d9_10
d9_11
b10
d10_11
b11
d11_12
d11_13
b12
d12_14
b13
d13_14
b14
d14_15
d14_16
b15
d15_18
b16
d16_17
d16_18
b17
d17_18
b18
d18_19
d18_20
b19
d19_20
b20
d20_21
d20_22
b21
d21_22
b22
d22_23
d22_24
b23
d23_25
b24
d24_25
b25
d25_26
d25_1
b26
d26_27
d26_28
b27
d27_28
b28
d28_29
b29
d29_30
d29_31
b30
d30_32
b31
d31_32
b32
d32_33
d32_34
b33
d33_34
b34
d34_35
d34_36
b35
d35_36
b36
d36_37
d36_38
b37
d37_38
b38
d38_39
d38_40
b39
d39_40
b40
d40_41
d40_42
b41
d41_42
b42
d42_43
d42_44
b43
d43_45
b44
d44_45
b45
d45_46
d45_47
b46
d46_49
b47
d47_48
d47_49
b48
d48_49
b49
d49_50
d49_29
b50
b0.0
b1.0
b1.1
b2.0
b2.1
b3.0
b3.1
b4.0
b4.1
b5.0
b5.1
b6.0
b6.1
b7.0
b7.1
b8.0
b8.1
b9.0
b9.1
b10.0
b10.1
b11.0
b11.1
b12.0
b12.1
b13.0
b13.1
b14.0
b14.1
b15.0
b15.1
b16.0
b16.1
b17.0
b17.1
b18.0
b18.1
b19.0
b19.1
b20.0
b20.1
b21.0
b21.1
b22.0
b22.1
b23.0
b23.1
b24.0
b24.1
b25.0
b25.1
b26.0
b26.1
b27.0
b27.1
b28.0
b28.1
b29.0
b29.1
b30.0
b30.1
b31.0
b31.1
b32.0
b32.1
b33.0
b33.1
b34.0
b34.1
b35.0
b35.1
b36.0
b36.1
b37.0
b37.1
b38.0
b38.1
b39.0
b39.1
b40.0
b40.1
b41.0
b41.1
b42.0
b42.1
b43.0
b43.1
b44.0
b44.1
b45.0
b45.1
b46.0
b46.1
b47.0
b47.1
b48.0
b48.1
b49.0
b49.1
b50.0
b50.1
b0.0
b1.0
b1.1
b2.0
b2.1
b3.0
b3.1
b4.0
b4.1
b5.0
b5.1
b6.0
b6.1
b7.0
b7.1
b8.0
b8.1
b9.0
b9.1
b10.0
b10.1
b11.0
b11.1
b12.0
b12.1
b13.0
b13.1
b14.0
b14.1
b15.0
b15.1
b16.0
b16.1
b17.0
b17.1
b18.0
b18.1
b19.0
b19.1
b20.0
b20.1
b21.0
b21.1
b22.0
b22.1
b23.0
b23.1
b24.0
b24.1
b25.0
b25.1
b26.0
b26.1
b27.0
b27.1
b28.0
b28.1
b29.0
b29.1
b30.0
b30.1
b31.0
b31.1
b32.0
b32.1
b33.0
b33.1
b34.0
b34.1
b35.0
b35.1
b36.0
b36.1
b37.0
b37.1
b38.0
b38.1
b39.0
b39.1
b40.0
b40.1
b41.0
b41.1
b42.0
b42.1
b43.0
b43.1
b44.0
b44.1
b45.0
b45.1
b46.0
b46.1
b47.0
b47.1
b48.0
b48.1
b49.0
b49.1
b50.0
b50.1
b0.d0
b0.d1
b0.d2
b1.d0
b18.d0
b22.d0
b24.d0
b26.d0
b26.d1
b27.d0
b28.d0
b28.d1
b28.d2
b31.d0
b32.d0
b49.d0
b49.d1
b50.d0
b50.d1
b50.d2

End
\ total_cons: 382 	total_vars: 348
